0 51 
1 56 
2 57 
3 59 
4 57 
5 53 
6 50 
7 49 
8 52 
9 52 
10 50 
11 55 
12 55 
13 50 
14 49 
15 49 
16 48 
17 47 
18 46 
19 48 
20 46 
21 43 
22 41 
23 43 
24 41 
25 38 
26 39 
27 39 
28 39 
29 39 
30 37 
31 33 
32 31 
33 31 
34 31 
35 32 
36 29 
37 27 
38 24 
39 26 
40 24 
41 20 
42 18 
43 17 
44 17 
45 18 
46 17 
47 18 
48 12 
49 13 
50 11 
51 9 
52 6 
53 6 
54 9 
55 8 
56 8 
57 9 
58 8 
59 6 
60 7 
61 8 
62 9 
63 6 
64 5 
65 5 
66 5 
67 3 
68 1 
69 1 
70 0 
71 0 

